(set-logic ALL)
(declare-fun seed0_T_1 () Int)
(declare-fun seed0_T_2 () Bool)
(declare-fun seed0_T_3 () Bool)
(declare-fun seed0_var_0xINPUT_359383 () String)
(assert (and (or (>= seed0_T_1 (str.len seed0_var_0xINPUT_359383)) (< (* seed0_T_1 seed0_T_1) (* seed0_T_1 seed0_T_1))) (or (= seed0_T_2 (= seed0_T_1 0)) (str.suffixof (str.++ seed0_var_0xINPUT_359383 "AE") (str.++ seed0_var_0xINPUT_359383 "wXqLJ1M2"))) (or (= seed0_T_3 (not seed0_T_2)) (=> (= (div seed0_T_1 seed0_T_1) (* seed0_T_1 seed0_T_1)) (> (+ seed0_T_1 (- 516)) (mod seed0_T_1 seed0_T_1)))) (or seed0_T_3 (xor (> (mod seed0_T_1 seed0_T_1) (+ seed0_T_1 (- 556))) (= (- seed0_T_1 419) (* seed0_T_1 seed0_T_1))))))
(check-sat)
(exit)